p cnf 729 12005
8 0
13 0
21 0
36 0
37 0
42 0
46 0
45 0
48 0
58 0
57 0
61 0
62 0
69 0
67 0
83 0
83 0
-1 -1 0
-1 -2 0
-1 -3 0
-1 -4 0
-1 -5 0
-1 -6 0
-1 -7 0
-1 -8 0
-2 -2 0
-2 -3 0
-2 -4 0
-2 -5 0
-2 -6 0
-2 -7 0
-2 -8 0
-3 -3 0
-3 -4 0
-3 -5 0
-3 -6 0
-3 -7 0
-3 -8 0
-4 -4 0
-4 -5 0
-4 -6 0
-4 -7 0
-4 -8 0
-5 -5 0
-5 -6 0
-5 -7 0
-5 -8 0
-6 -6 0
-6 -7 0
-6 -8 0
-7 -7 0
-7 -8 0
-8 -8 0
-2 -2 0
-2 -3 0
-2 -4 0
-2 -5 0
-2 -6 0
-2 -7 0
-2 -8 0
-2 -9 0
-3 -3 0
-3 -4 0
-3 -5 0
-3 -6 0
-3 -7 0
-3 -8 0
-3 -9 0
-4 -4 0
-4 -5 0
-4 -6 0
-4 -7 0
-4 -8 0
-4 -9 0
-5 -5 0
-5 -6 0
-5 -7 0
-5 -8 0
-5 -9 0
-6 -6 0
-6 -7 0
-6 -8 0
-6 -9 0
-7 -7 0
-7 -8 0
-7 -9 0
-8 -8 0
-8 -9 0
-9 -9 0
-3 -3 0
-3 -4 0
-3 -5 0
-3 -6 0
-3 -7 0
-3 -8 0
-3 -9 0
-3 -10 0
-4 -4 0
-4 -5 0
-4 -6 0
-4 -7 0
-4 -8 0
-4 -9 0
-4 -10 0
-5 -5 0
-5 -6 0
-5 -7 0
-5 -8 0
-5 -9 0
-5 -10 0
-6 -6 0
-6 -7 0
-6 -8 0
-6 -9 0
-6 -10 0
-7 -7 0
-7 -8 0
-7 -9 0
-7 -10 0
-8 -8 0
-8 -9 0
-8 -10 0
-9 -9 0
-9 -10 0
-10 -10 0
-4 -4 0
-4 -5 0
-4 -6 0
-4 -7 0
-4 -8 0
-4 -9 0
-4 -10 0
-4 -11 0
-5 -5 0
-5 -6 0
-5 -7 0
-5 -8 0
-5 -9 0
-5 -10 0
-5 -11 0
-6 -6 0
-6 -7 0
-6 -8 0
-6 -9 0
-6 -10 0
-6 -11 0
-7 -7 0
-7 -8 0
-7 -9 0
-7 -10 0
-7 -11 0
-8 -8 0
-8 -9 0
-8 -10 0
-8 -11 0
-9 -9 0
-9 -10 0
-9 -11 0
-10 -10 0
-10 -11 0
-11 -11 0
-5 -5 0
-5 -6 0
-5 -7 0
-5 -8 0
-5 -9 0
-5 -10 0
-5 -11 0
-5 -12 0
-6 -6 0
-6 -7 0
-6 -8 0
-6 -9 0
-6 -10 0
-6 -11 0
-6 -12 0
-7 -7 0
-7 -8 0
-7 -9 0
-7 -10 0
-7 -11 0
-7 -12 0
-8 -8 0
-8 -9 0
-8 -10 0
-8 -11 0
-8 -12 0
-9 -9 0
-9 -10 0
-9 -11 0
-9 -12 0
-10 -10 0
-10 -11 0
-10 -12 0
-11 -11 0
-11 -12 0
-12 -12 0
-6 -6 0
-6 -7 0
-6 -8 0
-6 -9 0
-6 -10 0
-6 -11 0
-6 -12 0
-6 -13 0
-7 -7 0
-7 -8 0
-7 -9 0
-7 -10 0
-7 -11 0
-7 -12 0
-7 -13 0
-8 -8 0
-8 -9 0
-8 -10 0
-8 -11 0
-8 -12 0
-8 -13 0
-9 -9 0
-9 -10 0
-9 -11 0
-9 -12 0
-9 -13 0
-10 -10 0
-10 -11 0
-10 -12 0
-10 -13 0
-11 -11 0
-11 -12 0
-11 -13 0
-12 -12 0
-12 -13 0
-13 -13 0
-7 -7 0
-7 -8 0
-7 -9 0
-7 -10 0
-7 -11 0
-7 -12 0
-7 -13 0
-7 -14 0
-8 -8 0
-8 -9 0
-8 -10 0
-8 -11 0
-8 -12 0
-8 -13 0
-8 -14 0
-9 -9 0
-9 -10 0
-9 -11 0
-9 -12 0
-9 -13 0
-9 -14 0
-10 -10 0
-10 -11 0
-10 -12 0
-10 -13 0
-10 -14 0
-11 -11 0
-11 -12 0
-11 -13 0
-11 -14 0
-12 -12 0
-12 -13 0
-12 -14 0
-13 -13 0
-13 -14 0
-14 -14 0
-8 -8 0
-8 -9 0
-8 -10 0
-8 -11 0
-8 -12 0
-8 -13 0
-8 -14 0
-8 -15 0
-9 -9 0
-9 -10 0
-9 -11 0
-9 -12 0
-9 -13 0
-9 -14 0
-9 -15 0
-10 -10 0
-10 -11 0
-10 -12 0
-10 -13 0
-10 -14 0
-10 -15 0
-11 -11 0
-11 -12 0
-11 -13 0
-11 -14 0
-11 -15 0
-12 -12 0
-12 -13 0
-12 -14 0
-12 -15 0
-13 -13 0
-13 -14 0
-13 -15 0
-14 -14 0
-14 -15 0
-15 -15 0
-9 -9 0
-9 -10 0
-9 -11 0
-9 -12 0
-9 -13 0
-9 -14 0
-9 -15 0
-9 -16 0
-10 -10 0
-10 -11 0
-10 -12 0
-10 -13 0
-10 -14 0
-10 -15 0
-10 -16 0
-11 -11 0
-11 -12 0
-11 -13 0
-11 -14 0
-11 -15 0
-11 -16 0
-12 -12 0
-12 -13 0
-12 -14 0
-12 -15 0
-12 -16 0
-13 -13 0
-13 -14 0
-13 -15 0
-13 -16 0
-14 -14 0
-14 -15 0
-14 -16 0
-15 -15 0
-15 -16 0
-16 -16 0
-10 -10 0
-10 -11 0
-10 -12 0
-10 -13 0
-10 -14 0
-10 -15 0
-10 -16 0
-10 -17 0
-11 -11 0
-11 -12 0
-11 -13 0
-11 -14 0
-11 -15 0
-11 -16 0
-11 -17 0
-12 -12 0
-12 -13 0
-12 -14 0
-12 -15 0
-12 -16 0
-12 -17 0
-13 -13 0
-13 -14 0
-13 -15 0
-13 -16 0
-13 -17 0
-14 -14 0
-14 -15 0
-14 -16 0
-14 -17 0
-15 -15 0
-15 -16 0
-15 -17 0
-16 -16 0
-16 -17 0
-17 -17 0
-11 -11 0
-11 -12 0
-11 -13 0
-11 -14 0
-11 -15 0
-11 -16 0
-11 -17 0
-11 -18 0
-12 -12 0
-12 -13 0
-12 -14 0
-12 -15 0
-12 -16 0
-12 -17 0
-12 -18 0
-13 -13 0
-13 -14 0
-13 -15 0
-13 -16 0
-13 -17 0
-13 -18 0
-14 -14 0
-14 -15 0
-14 -16 0
-14 -17 0
-14 -18 0
-15 -15 0
-15 -16 0
-15 -17 0
-15 -18 0
-16 -16 0
-16 -17 0
-16 -18 0
-17 -17 0
-17 -18 0
-18 -18 0
-12 -12 0
-12 -13 0
-12 -14 0
-12 -15 0
-12 -16 0
-12 -17 0
-12 -18 0
-12 -19 0
-13 -13 0
-13 -14 0
-13 -15 0
-13 -16 0
-13 -17 0
-13 -18 0
-13 -19 0
-14 -14 0
-14 -15 0
-14 -16 0
-14 -17 0
-14 -18 0
-14 -19 0
-15 -15 0
-15 -16 0
-15 -17 0
-15 -18 0
-15 -19 0
-16 -16 0
-16 -17 0
-16 -18 0
-16 -19 0
-17 -17 0
-17 -18 0
-17 -19 0
-18 -18 0
-18 -19 0
-19 -19 0
-13 -13 0
-13 -14 0
-13 -15 0
-13 -16 0
-13 -17 0
-13 -18 0
-13 -19 0
-13 -20 0
-14 -14 0
-14 -15 0
-14 -16 0
-14 -17 0
-14 -18 0
-14 -19 0
-14 -20 0
-15 -15 0
-15 -16 0
-15 -17 0
-15 -18 0
-15 -19 0
-15 -20 0
-16 -16 0
-16 -17 0
-16 -18 0
-16 -19 0
-16 -20 0
-17 -17 0
-17 -18 0
-17 -19 0
-17 -20 0
-18 -18 0
-18 -19 0
-18 -20 0
-19 -19 0
-19 -20 0
-20 -20 0
-14 -14 0
-14 -15 0
-14 -16 0
-14 -17 0
-14 -18 0
-14 -19 0
-14 -20 0
-14 -21 0
-15 -15 0
-15 -16 0
-15 -17 0
-15 -18 0
-15 -19 0
-15 -20 0
-15 -21 0
-16 -16 0
-16 -17 0
-16 -18 0
-16 -19 0
-16 -20 0
-16 -21 0
-17 -17 0
-17 -18 0
-17 -19 0
-17 -20 0
-17 -21 0
-18 -18 0
-18 -19 0
-18 -20 0
-18 -21 0
-19 -19 0
-19 -20 0
-19 -21 0
-20 -20 0
-20 -21 0
-21 -21 0
-15 -15 0
-15 -16 0
-15 -17 0
-15 -18 0
-15 -19 0
-15 -20 0
-15 -21 0
-15 -22 0
-16 -16 0
-16 -17 0
-16 -18 0
-16 -19 0
-16 -20 0
-16 -21 0
-16 -22 0
-17 -17 0
-17 -18 0
-17 -19 0
-17 -20 0
-17 -21 0
-17 -22 0
-18 -18 0
-18 -19 0
-18 -20 0
-18 -21 0
-18 -22 0
-19 -19 0
-19 -20 0
-19 -21 0
-19 -22 0
-20 -20 0
-20 -21 0
-20 -22 0
-21 -21 0
-21 -22 0
-22 -22 0
-16 -16 0
-16 -17 0
-16 -18 0
-16 -19 0
-16 -20 0
-16 -21 0
-16 -22 0
-16 -23 0
-17 -17 0
-17 -18 0
-17 -19 0
-17 -20 0
-17 -21 0
-17 -22 0
-17 -23 0
-18 -18 0
-18 -19 0
-18 -20 0
-18 -21 0
-18 -22 0
-18 -23 0
-19 -19 0
-19 -20 0
-19 -21 0
-19 -22 0
-19 -23 0
-20 -20 0
-20 -21 0
-20 -22 0
-20 -23 0
-21 -21 0
-21 -22 0
-21 -23 0
-22 -22 0
-22 -23 0
-23 -23 0
-17 -17 0
-17 -18 0
-17 -19 0
-17 -20 0
-17 -21 0
-17 -22 0
-17 -23 0
-17 -24 0
-18 -18 0
-18 -19 0
-18 -20 0
-18 -21 0
-18 -22 0
-18 -23 0
-18 -24 0
-19 -19 0
-19 -20 0
-19 -21 0
-19 -22 0
-19 -23 0
-19 -24 0
-20 -20 0
-20 -21 0
-20 -22 0
-20 -23 0
-20 -24 0
-21 -21 0
-21 -22 0
-21 -23 0
-21 -24 0
-22 -22 0
-22 -23 0
-22 -24 0
-23 -23 0
-23 -24 0
-24 -24 0
-18 -18 0
-18 -19 0
-18 -20 0
-18 -21 0
-18 -22 0
-18 -23 0
-18 -24 0
-18 -25 0
-19 -19 0
-19 -20 0
-19 -21 0
-19 -22 0
-19 -23 0
-19 -24 0
-19 -25 0
-20 -20 0
-20 -21 0
-20 -22 0
-20 -23 0
-20 -24 0
-20 -25 0
-21 -21 0
-21 -22 0
-21 -23 0
-21 -24 0
-21 -25 0
-22 -22 0
-22 -23 0
-22 -24 0
-22 -25 0
-23 -23 0
-23 -24 0
-23 -25 0
-24 -24 0
-24 -25 0
-25 -25 0
-19 -19 0
-19 -20 0
-19 -21 0
-19 -22 0
-19 -23 0
-19 -24 0
-19 -25 0
-19 -26 0
-20 -20 0
-20 -21 0
-20 -22 0
-20 -23 0
-20 -24 0
-20 -25 0
-20 -26 0
-21 -21 0
-21 -22 0
-21 -23 0
-21 -24 0
-21 -25 0
-21 -26 0
-22 -22 0
-22 -23 0
-22 -24 0
-22 -25 0
-22 -26 0
-23 -23 0
-23 -24 0
-23 -25 0
-23 -26 0
-24 -24 0
-24 -25 0
-24 -26 0
-25 -25 0
-25 -26 0
-26 -26 0
-20 -20 0
-20 -21 0
-20 -22 0
-20 -23 0
-20 -24 0
-20 -25 0
-20 -26 0
-20 -27 0
-21 -21 0
-21 -22 0
-21 -23 0
-21 -24 0
-21 -25 0
-21 -26 0
-21 -27 0
-22 -22 0
-22 -23 0
-22 -24 0
-22 -25 0
-22 -26 0
-22 -27 0
-23 -23 0
-23 -24 0
-23 -25 0
-23 -26 0
-23 -27 0
-24 -24 0
-24 -25 0
-24 -26 0
-24 -27 0
-25 -25 0
-25 -26 0
-25 -27 0
-26 -26 0
-26 -27 0
-27 -27 0
-21 -21 0
-21 -22 0
-21 -23 0
-21 -24 0
-21 -25 0
-21 -26 0
-21 -27 0
-21 -28 0
-22 -22 0
-22 -23 0
-22 -24 0
-22 -25 0
-22 -26 0
-22 -27 0
-22 -28 0
-23 -23 0
-23 -24 0
-23 -25 0
-23 -26 0
-23 -27 0
-23 -28 0
-24 -24 0
-24 -25 0
-24 -26 0
-24 -27 0
-24 -28 0
-25 -25 0
-25 -26 0
-25 -27 0
-25 -28 0
-26 -26 0
-26 -27 0
-26 -28 0
-27 -27 0
-27 -28 0
-28 -28 0
-22 -22 0
-22 -23 0
-22 -24 0
-22 -25 0
-22 -26 0
-22 -27 0
-22 -28 0
-22 -29 0
-23 -23 0
-23 -24 0
-23 -25 0
-23 -26 0
-23 -27 0
-23 -28 0
-23 -29 0
-24 -24 0
-24 -25 0
-24 -26 0
-24 -27 0
-24 -28 0
-24 -29 0
-25 -25 0
-25 -26 0
-25 -27 0
-25 -28 0
-25 -29 0
-26 -26 0
-26 -27 0
-26 -28 0
-26 -29 0
-27 -27 0
-27 -28 0
-27 -29 0
-28 -28 0
-28 -29 0
-29 -29 0
-23 -23 0
-23 -24 0
-23 -25 0
-23 -26 0
-23 -27 0
-23 -28 0
-23 -29 0
-23 -30 0
-24 -24 0
-24 -25 0
-24 -26 0
-24 -27 0
-24 -28 0
-24 -29 0
-24 -30 0
-25 -25 0
-25 -26 0
-25 -27 0
-25 -28 0
-25 -29 0
-25 -30 0
-26 -26 0
-26 -27 0
-26 -28 0
-26 -29 0
-26 -30 0
-27 -27 0
-27 -28 0
-27 -29 0
-27 -30 0
-28 -28 0
-28 -29 0
-28 -30 0
-29 -29 0
-29 -30 0
-30 -30 0
-24 -24 0
-24 -25 0
-24 -26 0
-24 -27 0
-24 -28 0
-24 -29 0
-24 -30 0
-24 -31 0
-25 -25 0
-25 -26 0
-25 -27 0
-25 -28 0
-25 -29 0
-25 -30 0
-25 -31 0
-26 -26 0
-26 -27 0
-26 -28 0
-26 -29 0
-26 -30 0
-26 -31 0
-27 -27 0
-27 -28 0
-27 -29 0
-27 -30 0
-27 -31 0
-28 -28 0
-28 -29 0
-28 -30 0
-28 -31 0
-29 -29 0
-29 -30 0
-29 -31 0
-30 -30 0
-30 -31 0
-31 -31 0
-25 -25 0
-25 -26 0
-25 -27 0
-25 -28 0
-25 -29 0
-25 -30 0
-25 -31 0
-25 -32 0
-26 -26 0
-26 -27 0
-26 -28 0
-26 -29 0
-26 -30 0
-26 -31 0
-26 -32 0
-27 -27 0
-27 -28 0
-27 -29 0
-27 -30 0
-27 -31 0
-27 -32 0
-28 -28 0
-28 -29 0
-28 -30 0
-28 -31 0
-28 -32 0
-29 -29 0
-29 -30 0
-29 -31 0
-29 -32 0
-30 -30 0
-30 -31 0
-30 -32 0
-31 -31 0
-31 -32 0
-32 -32 0
-26 -26 0
-26 -27 0
-26 -28 0
-26 -29 0
-26 -30 0
-26 -31 0
-26 -32 0
-26 -33 0
-27 -27 0
-27 -28 0
-27 -29 0
-27 -30 0
-27 -31 0
-27 -32 0
-27 -33 0
-28 -28 0
-28 -29 0
-28 -30 0
-28 -31 0
-28 -32 0
-28 -33 0
-29 -29 0
-29 -30 0
-29 -31 0
-29 -32 0
-29 -33 0
-30 -30 0
-30 -31 0
-30 -32 0
-30 -33 0
-31 -31 0
-31 -32 0
-31 -33 0
-32 -32 0
-32 -33 0
-33 -33 0
-27 -27 0
-27 -28 0
-27 -29 0
-27 -30 0
-27 -31 0
-27 -32 0
-27 -33 0
-27 -34 0
-28 -28 0
-28 -29 0
-28 -30 0
-28 -31 0
-28 -32 0
-28 -33 0
-28 -34 0
-29 -29 0
-29 -30 0
-29 -31 0
-29 -32 0
-29 -33 0
-29 -34 0
-30 -30 0
-30 -31 0
-30 -32 0
-30 -33 0
-30 -34 0
-31 -31 0
-31 -32 0
-31 -33 0
-31 -34 0
-32 -32 0
-32 -33 0
-32 -34 0
-33 -33 0
-33 -34 0
-34 -34 0
-28 -28 0
-28 -29 0
-28 -30 0
-28 -31 0
-28 -32 0
-28 -33 0
-28 -34 0
-28 -35 0
-29 -29 0
-29 -30 0
-29 -31 0
-29 -32 0
-29 -33 0
-29 -34 0
-29 -35 0
-30 -30 0
-30 -31 0
-30 -32 0
-30 -33 0
-30 -34 0
-30 -35 0
-31 -31 0
-31 -32 0
-31 -33 0
-31 -34 0
-31 -35 0
-32 -32 0
-32 -33 0
-32 -34 0
-32 -35 0
-33 -33 0
-33 -34 0
-33 -35 0
-34 -34 0
-34 -35 0
-35 -35 0
-29 -29 0
-29 -30 0
-29 -31 0
-29 -32 0
-29 -33 0
-29 -34 0
-29 -35 0
-29 -36 0
-30 -30 0
-30 -31 0
-30 -32 0
-30 -33 0
-30 -34 0
-30 -35 0
-30 -36 0
-31 -31 0
-31 -32 0
-31 -33 0
-31 -34 0
-31 -35 0
-31 -36 0
-32 -32 0
-32 -33 0
-32 -34 0
-32 -35 0
-32 -36 0
-33 -33 0
-33 -34 0
-33 -35 0
-33 -36 0
-34 -34 0
-34 -35 0
-34 -36 0
-35 -35 0
-35 -36 0
-36 -36 0
-30 -30 0
-30 -31 0
-30 -32 0
-30 -33 0
-30 -34 0
-30 -35 0
-30 -36 0
-30 -37 0
-31 -31 0
-31 -32 0
-31 -33 0
-31 -34 0
-31 -35 0
-31 -36 0
-31 -37 0
-32 -32 0
-32 -33 0
-32 -34 0
-32 -35 0
-32 -36 0
-32 -37 0
-33 -33 0
-33 -34 0
-33 -35 0
-33 -36 0
-33 -37 0
-34 -34 0
-34 -35 0
-34 -36 0
-34 -37 0
-35 -35 0
-35 -36 0
-35 -37 0
-36 -36 0
-36 -37 0
-37 -37 0
-31 -31 0
-31 -32 0
-31 -33 0
-31 -34 0
-31 -35 0
-31 -36 0
-31 -37 0
-31 -38 0
-32 -32 0
-32 -33 0
-32 -34 0
-32 -35 0
-32 -36 0
-32 -37 0
-32 -38 0
-33 -33 0
-33 -34 0
-33 -35 0
-33 -36 0
-33 -37 0
-33 -38 0
-34 -34 0
-34 -35 0
-34 -36 0
-34 -37 0
-34 -38 0
-35 -35 0
-35 -36 0
-35 -37 0
-35 -38 0
-36 -36 0
-36 -37 0
-36 -38 0
-37 -37 0
-37 -38 0
-38 -38 0
-32 -32 0
-32 -33 0
-32 -34 0
-32 -35 0
-32 -36 0
-32 -37 0
-32 -38 0
-32 -39 0
-33 -33 0
-33 -34 0
-33 -35 0
-33 -36 0
-33 -37 0
-33 -38 0
-33 -39 0
-34 -34 0
-34 -35 0
-34 -36 0
-34 -37 0
-34 -38 0
-34 -39 0
-35 -35 0
-35 -36 0
-35 -37 0
-35 -38 0
-35 -39 0
-36 -36 0
-36 -37 0
-36 -38 0
-36 -39 0
-37 -37 0
-37 -38 0
-37 -39 0
-38 -38 0
-38 -39 0
-39 -39 0
-33 -33 0
-33 -34 0
-33 -35 0
-33 -36 0
-33 -37 0
-33 -38 0
-33 -39 0
-33 -40 0
-34 -34 0
-34 -35 0
-34 -36 0
-34 -37 0
-34 -38 0
-34 -39 0
-34 -40 0
-35 -35 0
-35 -36 0
-35 -37 0
-35 -38 0
-35 -39 0
-35 -40 0
-36 -36 0
-36 -37 0
-36 -38 0
-36 -39 0
-36 -40 0
-37 -37 0
-37 -38 0
-37 -39 0
-37 -40 0
-38 -38 0
-38 -39 0
-38 -40 0
-39 -39 0
-39 -40 0
-40 -40 0
-34 -34 0
-34 -35 0
-34 -36 0
-34 -37 0
-34 -38 0
-34 -39 0
-34 -40 0
-34 -41 0
-35 -35 0
-35 -36 0
-35 -37 0
-35 -38 0
-35 -39 0
-35 -40 0
-35 -41 0
-36 -36 0
-36 -37 0
-36 -38 0
-36 -39 0
-36 -40 0
-36 -41 0
-37 -37 0
-37 -38 0
-37 -39 0
-37 -40 0
-37 -41 0
-38 -38 0
-38 -39 0
-38 -40 0
-38 -41 0
-39 -39 0
-39 -40 0
-39 -41 0
-40 -40 0
-40 -41 0
-41 -41 0
-35 -35 0
-35 -36 0
-35 -37 0
-35 -38 0
-35 -39 0
-35 -40 0
-35 -41 0
-35 -42 0
-36 -36 0
-36 -37 0
-36 -38 0
-36 -39 0
-36 -40 0
-36 -41 0
-36 -42 0
-37 -37 0
-37 -38 0
-37 -39 0
-37 -40 0
-37 -41 0
-37 -42 0
-38 -38 0
-38 -39 0
-38 -40 0
-38 -41 0
-38 -42 0
-39 -39 0
-39 -40 0
-39 -41 0
-39 -42 0
-40 -40 0
-40 -41 0
-40 -42 0
-41 -41 0
-41 -42 0
-42 -42 0
-36 -36 0
-36 -37 0
-36 -38 0
-36 -39 0
-36 -40 0
-36 -41 0
-36 -42 0
-36 -43 0
-37 -37 0
-37 -38 0
-37 -39 0
-37 -40 0
-37 -41 0
-37 -42 0
-37 -43 0
-38 -38 0
-38 -39 0
-38 -40 0
-38 -41 0
-38 -42 0
-38 -43 0
-39 -39 0
-39 -40 0
-39 -41 0
-39 -42 0
-39 -43 0
-40 -40 0
-40 -41 0
-40 -42 0
-40 -43 0
-41 -41 0
-41 -42 0
-41 -43 0
-42 -42 0
-42 -43 0
-43 -43 0
-37 -37 0
-37 -38 0
-37 -39 0
-37 -40 0
-37 -41 0
-37 -42 0
-37 -43 0
-37 -44 0
-38 -38 0
-38 -39 0
-38 -40 0
-38 -41 0
-38 -42 0
-38 -43 0
-38 -44 0
-39 -39 0
-39 -40 0
-39 -41 0
-39 -42 0
-39 -43 0
-39 -44 0
-40 -40 0
-40 -41 0
-40 -42 0
-40 -43 0
-40 -44 0
-41 -41 0
-41 -42 0
-41 -43 0
-41 -44 0
-42 -42 0
-42 -43 0
-42 -44 0
-43 -43 0
-43 -44 0
-44 -44 0
-38 -38 0
-38 -39 0
-38 -40 0
-38 -41 0
-38 -42 0
-38 -43 0
-38 -44 0
-38 -45 0
-39 -39 0
-39 -40 0
-39 -41 0
-39 -42 0
-39 -43 0
-39 -44 0
-39 -45 0
-40 -40 0
-40 -41 0
-40 -42 0
-40 -43 0
-40 -44 0
-40 -45 0
-41 -41 0
-41 -42 0
-41 -43 0
-41 -44 0
-41 -45 0
-42 -42 0
-42 -43 0
-42 -44 0
-42 -45 0
-43 -43 0
-43 -44 0
-43 -45 0
-44 -44 0
-44 -45 0
-45 -45 0
-39 -39 0
-39 -40 0
-39 -41 0
-39 -42 0
-39 -43 0
-39 -44 0
-39 -45 0
-39 -46 0
-40 -40 0
-40 -41 0
-40 -42 0
-40 -43 0
-40 -44 0
-40 -45 0
-40 -46 0
-41 -41 0
-41 -42 0
-41 -43 0
-41 -44 0
-41 -45 0
-41 -46 0
-42 -42 0
-42 -43 0
-42 -44 0
-42 -45 0
-42 -46 0
-43 -43 0
-43 -44 0
-43 -45 0
-43 -46 0
-44 -44 0
-44 -45 0
-44 -46 0
-45 -45 0
-45 -46 0
-46 -46 0
-40 -40 0
-40 -41 0
-40 -42 0
-40 -43 0
-40 -44 0
-40 -45 0
-40 -46 0
-40 -47 0
-41 -41 0
-41 -42 0
-41 -43 0
-41 -44 0
-41 -45 0
-41 -46 0
-41 -47 0
-42 -42 0
-42 -43 0
-42 -44 0
-42 -45 0
-42 -46 0
-42 -47 0
-43 -43 0
-43 -44 0
-43 -45 0
-43 -46 0
-43 -47 0
-44 -44 0
-44 -45 0
-44 -46 0
-44 -47 0
-45 -45 0
-45 -46 0
-45 -47 0
-46 -46 0
-46 -47 0
-47 -47 0
-41 -41 0
-41 -42 0
-41 -43 0
-41 -44 0
-41 -45 0
-41 -46 0
-41 -47 0
-41 -48 0
-42 -42 0
-42 -43 0
-42 -44 0
-42 -45 0
-42 -46 0
-42 -47 0
-42 -48 0
-43 -43 0
-43 -44 0
-43 -45 0
-43 -46 0
-43 -47 0
-43 -48 0
-44 -44 0
-44 -45 0
-44 -46 0
-44 -47 0
-44 -48 0
-45 -45 0
-45 -46 0
-45 -47 0
-45 -48 0
-46 -46 0
-46 -47 0
-46 -48 0
-47 -47 0
-47 -48 0
-48 -48 0
-42 -42 0
-42 -43 0
-42 -44 0
-42 -45 0
-42 -46 0
-42 -47 0
-42 -48 0
-42 -49 0
-43 -43 0
-43 -44 0
-43 -45 0
-43 -46 0
-43 -47 0
-43 -48 0
-43 -49 0
-44 -44 0
-44 -45 0
-44 -46 0
-44 -47 0
-44 -48 0
-44 -49 0
-45 -45 0
-45 -46 0
-45 -47 0
-45 -48 0
-45 -49 0
-46 -46 0
-46 -47 0
-46 -48 0
-46 -49 0
-47 -47 0
-47 -48 0
-47 -49 0
-48 -48 0
-48 -49 0
-49 -49 0
-43 -43 0
-43 -44 0
-43 -45 0
-43 -46 0
-43 -47 0
-43 -48 0
-43 -49 0
-43 -50 0
-44 -44 0
-44 -45 0
-44 -46 0
-44 -47 0
-44 -48 0
-44 -49 0
-44 -50 0
-45 -45 0
-45 -46 0
-45 -47 0
-45 -48 0
-45 -49 0
-45 -50 0
-46 -46 0
-46 -47 0
-46 -48 0
-46 -49 0
-46 -50 0
-47 -47 0
-47 -48 0
-47 -49 0
-47 -50 0
-48 -48 0
-48 -49 0
-48 -50 0
-49 -49 0
-49 -50 0
-50 -50 0
-44 -44 0
-44 -45 0
-44 -46 0
-44 -47 0
-44 -48 0
-44 -49 0
-44 -50 0
-44 -51 0
-45 -45 0
-45 -46 0
-45 -47 0
-45 -48 0
-45 -49 0
-45 -50 0
-45 -51 0
-46 -46 0
-46 -47 0
-46 -48 0
-46 -49 0
-46 -50 0
-46 -51 0
-47 -47 0
-47 -48 0
-47 -49 0
-47 -50 0
-47 -51 0
-48 -48 0
-48 -49 0
-48 -50 0
-48 -51 0
-49 -49 0
-49 -50 0
-49 -51 0
-50 -50 0
-50 -51 0
-51 -51 0
-45 -45 0
-45 -46 0
-45 -47 0
-45 -48 0
-45 -49 0
-45 -50 0
-45 -51 0
-45 -52 0
-46 -46 0
-46 -47 0
-46 -48 0
-46 -49 0
-46 -50 0
-46 -51 0
-46 -52 0
-47 -47 0
-47 -48 0
-47 -49 0
-47 -50 0
-47 -51 0
-47 -52 0
-48 -48 0
-48 -49 0
-48 -50 0
-48 -51 0
-48 -52 0
-49 -49 0
-49 -50 0
-49 -51 0
-49 -52 0
-50 -50 0
-50 -51 0
-50 -52 0
-51 -51 0
-51 -52 0
-52 -52 0
-46 -46 0
-46 -47 0
-46 -48 0
-46 -49 0
-46 -50 0
-46 -51 0
-46 -52 0
-46 -53 0
-47 -47 0
-47 -48 0
-47 -49 0
-47 -50 0
-47 -51 0
-47 -52 0
-47 -53 0
-48 -48 0
-48 -49 0
-48 -50 0
-48 -51 0
-48 -52 0
-48 -53 0
-49 -49 0
-49 -50 0
-49 -51 0
-49 -52 0
-49 -53 0
-50 -50 0
-50 -51 0
-50 -52 0
-50 -53 0
-51 -51 0
-51 -52 0
-51 -53 0
-52 -52 0
-52 -53 0
-53 -53 0
-47 -47 0
-47 -48 0
-47 -49 0
-47 -50 0
-47 -51 0
-47 -52 0
-47 -53 0
-47 -54 0
-48 -48 0
-48 -49 0
-48 -50 0
-48 -51 0
-48 -52 0
-48 -53 0
-48 -54 0
-49 -49 0
-49 -50 0
-49 -51 0
-49 -52 0
-49 -53 0
-49 -54 0
-50 -50 0
-50 -51 0
-50 -52 0
-50 -53 0
-50 -54 0
-51 -51 0
-51 -52 0
-51 -53 0
-51 -54 0
-52 -52 0
-52 -53 0
-52 -54 0
-53 -53 0
-53 -54 0
-54 -54 0
-48 -48 0
-48 -49 0
-48 -50 0
-48 -51 0
-48 -52 0
-48 -53 0
-48 -54 0
-48 -55 0
-49 -49 0
-49 -50 0
-49 -51 0
-49 -52 0
-49 -53 0
-49 -54 0
-49 -55 0
-50 -50 0
-50 -51 0
-50 -52 0
-50 -53 0
-50 -54 0
-50 -55 0
-51 -51 0
-51 -52 0
-51 -53 0
-51 -54 0
-51 -55 0
-52 -52 0
-52 -53 0
-52 -54 0
-52 -55 0
-53 -53 0
-53 -54 0
-53 -55 0
-54 -54 0
-54 -55 0
-55 -55 0
-49 -49 0
-49 -50 0
-49 -51 0
-49 -52 0
-49 -53 0
-49 -54 0
-49 -55 0
-49 -56 0
-50 -50 0
-50 -51 0
-50 -52 0
-50 -53 0
-50 -54 0
-50 -55 0
-50 -56 0
-51 -51 0
-51 -52 0
-51 -53 0
-51 -54 0
-51 -55 0
-51 -56 0
-52 -52 0
-52 -53 0
-52 -54 0
-52 -55 0
-52 -56 0
-53 -53 0
-53 -54 0
-53 -55 0
-53 -56 0
-54 -54 0
-54 -55 0
-54 -56 0
-55 -55 0
-55 -56 0
-56 -56 0
-50 -50 0
-50 -51 0
-50 -52 0
-50 -53 0
-50 -54 0
-50 -55 0
-50 -56 0
-50 -57 0
-51 -51 0
-51 -52 0
-51 -53 0
-51 -54 0
-51 -55 0
-51 -56 0
-51 -57 0
-52 -52 0
-52 -53 0
-52 -54 0
-52 -55 0
-52 -56 0
-52 -57 0
-53 -53 0
-53 -54 0
-53 -55 0
-53 -56 0
-53 -57 0
-54 -54 0
-54 -55 0
-54 -56 0
-54 -57 0
-55 -55 0
-55 -56 0
-55 -57 0
-56 -56 0
-56 -57 0
-57 -57 0
-51 -51 0
-51 -52 0
-51 -53 0
-51 -54 0
-51 -55 0
-51 -56 0
-51 -57 0
-51 -58 0
-52 -52 0
-52 -53 0
-52 -54 0
-52 -55 0
-52 -56 0
-52 -57 0
-52 -58 0
-53 -53 0
-53 -54 0
-53 -55 0
-53 -56 0
-53 -57 0
-53 -58 0
-54 -54 0
-54 -55 0
-54 -56 0
-54 -57 0
-54 -58 0
-55 -55 0
-55 -56 0
-55 -57 0
-55 -58 0
-56 -56 0
-56 -57 0
-56 -58 0
-57 -57 0
-57 -58 0
-58 -58 0
-52 -52 0
-52 -53 0
-52 -54 0
-52 -55 0
-52 -56 0
-52 -57 0
-52 -58 0
-52 -59 0
-53 -53 0
-53 -54 0
-53 -55 0
-53 -56 0
-53 -57 0
-53 -58 0
-53 -59 0
-54 -54 0
-54 -55 0
-54 -56 0
-54 -57 0
-54 -58 0
-54 -59 0
-55 -55 0
-55 -56 0
-55 -57 0
-55 -58 0
-55 -59 0
-56 -56 0
-56 -57 0
-56 -58 0
-56 -59 0
-57 -57 0
-57 -58 0
-57 -59 0
-58 -58 0
-58 -59 0
-59 -59 0
-53 -53 0
-53 -54 0
-53 -55 0
-53 -56 0
-53 -57 0
-53 -58 0
-53 -59 0
-53 -60 0
-54 -54 0
-54 -55 0
-54 -56 0
-54 -57 0
-54 -58 0
-54 -59 0
-54 -60 0
-55 -55 0
-55 -56 0
-55 -57 0
-55 -58 0
-55 -59 0
-55 -60 0
-56 -56 0
-56 -57 0
-56 -58 0
-56 -59 0
-56 -60 0
-57 -57 0
-57 -58 0
-57 -59 0
-57 -60 0
-58 -58 0
-58 -59 0
-58 -60 0
-59 -59 0
-59 -60 0
-60 -60 0
-54 -54 0
-54 -55 0
-54 -56 0
-54 -57 0
-54 -58 0
-54 -59 0
-54 -60 0
-54 -61 0
-55 -55 0
-55 -56 0
-55 -57 0
-55 -58 0
-55 -59 0
-55 -60 0
-55 -61 0
-56 -56 0
-56 -57 0
-56 -58 0
-56 -59 0
-56 -60 0
-56 -61 0
-57 -57 0
-57 -58 0
-57 -59 0
-57 -60 0
-57 -61 0
-58 -58 0
-58 -59 0
-58 -60 0
-58 -61 0
-59 -59 0
-59 -60 0
-59 -61 0
-60 -60 0
-60 -61 0
-61 -61 0
-55 -55 0
-55 -56 0
-55 -57 0
-55 -58 0
-55 -59 0
-55 -60 0
-55 -61 0
-55 -62 0
-56 -56 0
-56 -57 0
-56 -58 0
-56 -59 0
-56 -60 0
-56 -61 0
-56 -62 0
-57 -57 0
-57 -58 0
-57 -59 0
-57 -60 0
-57 -61 0
-57 -62 0
-58 -58 0
-58 -59 0
-58 -60 0
-58 -61 0
-58 -62 0
-59 -59 0
-59 -60 0
-59 -61 0
-59 -62 0
-60 -60 0
-60 -61 0
-60 -62 0
-61 -61 0
-61 -62 0
-62 -62 0
-56 -56 0
-56 -57 0
-56 -58 0
-56 -59 0
-56 -60 0
-56 -61 0
-56 -62 0
-56 -63 0
-57 -57 0
-57 -58 0
-57 -59 0
-57 -60 0
-57 -61 0
-57 -62 0
-57 -63 0
-58 -58 0
-58 -59 0
-58 -60 0
-58 -61 0
-58 -62 0
-58 -63 0
-59 -59 0
-59 -60 0
-59 -61 0
-59 -62 0
-59 -63 0
-60 -60 0
-60 -61 0
-60 -62 0
-60 -63 0
-61 -61 0
-61 -62 0
-61 -63 0
-62 -62 0
-62 -63 0
-63 -63 0
-57 -57 0
-57 -58 0
-57 -59 0
-57 -60 0
-57 -61 0
-57 -62 0
-57 -63 0
-57 -64 0
-58 -58 0
-58 -59 0
-58 -60 0
-58 -61 0
-58 -62 0
-58 -63 0
-58 -64 0
-59 -59 0
-59 -60 0
-59 -61 0
-59 -62 0
-59 -63 0
-59 -64 0
-60 -60 0
-60 -61 0
-60 -62 0
-60 -63 0
-60 -64 0
-61 -61 0
-61 -62 0
-61 -63 0
-61 -64 0
-62 -62 0
-62 -63 0
-62 -64 0
-63 -63 0
-63 -64 0
-64 -64 0
-58 -58 0
-58 -59 0
-58 -60 0
-58 -61 0
-58 -62 0
-58 -63 0
-58 -64 0
-58 -65 0
-59 -59 0
-59 -60 0
-59 -61 0
-59 -62 0
-59 -63 0
-59 -64 0
-59 -65 0
-60 -60 0
-60 -61 0
-60 -62 0
-60 -63 0
-60 -64 0
-60 -65 0
-61 -61 0
-61 -62 0
-61 -63 0
-61 -64 0
-61 -65 0
-62 -62 0
-62 -63 0
-62 -64 0
-62 -65 0
-63 -63 0
-63 -64 0
-63 -65 0
-64 -64 0
-64 -65 0
-65 -65 0
-59 -59 0
-59 -60 0
-59 -61 0
-59 -62 0
-59 -63 0
-59 -64 0
-59 -65 0
-59 -66 0
-60 -60 0
-60 -61 0
-60 -62 0
-60 -63 0
-60 -64 0
-60 -65 0
-60 -66 0
-61 -61 0
-61 -62 0
-61 -63 0
-61 -64 0
-61 -65 0
-61 -66 0
-62 -62 0
-62 -63 0
-62 -64 0
-62 -65 0
-62 -66 0
-63 -63 0
-63 -64 0
-63 -65 0
-63 -66 0
-64 -64 0
-64 -65 0
-64 -66 0
-65 -65 0
-65 -66 0
-66 -66 0
-60 -60 0
-60 -61 0
-60 -62 0
-60 -63 0
-60 -64 0
-60 -65 0
-60 -66 0
-60 -67 0
-61 -61 0
-61 -62 0
-61 -63 0
-61 -64 0
-61 -65 0
-61 -66 0
-61 -67 0
-62 -62 0
-62 -63 0
-62 -64 0
-62 -65 0
-62 -66 0
-62 -67 0
-63 -63 0
-63 -64 0
-63 -65 0
-63 -66 0
-63 -67 0
-64 -64 0
-64 -65 0
-64 -66 0
-64 -67 0
-65 -65 0
-65 -66 0
-65 -67 0
-66 -66 0
-66 -67 0
-67 -67 0
-61 -61 0
-61 -62 0
-61 -63 0
-61 -64 0
-61 -65 0
-61 -66 0
-61 -67 0
-61 -68 0
-62 -62 0
-62 -63 0
-62 -64 0
-62 -65 0
-62 -66 0
-62 -67 0
-62 -68 0
-63 -63 0
-63 -64 0
-63 -65 0
-63 -66 0
-63 -67 0
-63 -68 0
-64 -64 0
-64 -65 0
-64 -66 0
-64 -67 0
-64 -68 0
-65 -65 0
-65 -66 0
-65 -67 0
-65 -68 0
-66 -66 0
-66 -67 0
-66 -68 0
-67 -67 0
-67 -68 0
-68 -68 0
-62 -62 0
-62 -63 0
-62 -64 0
-62 -65 0
-62 -66 0
-62 -67 0
-62 -68 0
-62 -69 0
-63 -63 0
-63 -64 0
-63 -65 0
-63 -66 0
-63 -67 0
-63 -68 0
-63 -69 0
-64 -64 0
-64 -65 0
-64 -66 0
-64 -67 0
-64 -68 0
-64 -69 0
-65 -65 0
-65 -66 0
-65 -67 0
-65 -68 0
-65 -69 0
-66 -66 0
-66 -67 0
-66 -68 0
-66 -69 0
-67 -67 0
-67 -68 0
-67 -69 0
-68 -68 0
-68 -69 0
-69 -69 0
-63 -63 0
-63 -64 0
-63 -65 0
-63 -66 0
-63 -67 0
-63 -68 0
-63 -69 0
-63 -70 0
-64 -64 0
-64 -65 0
-64 -66 0
-64 -67 0
-64 -68 0
-64 -69 0
-64 -70 0
-65 -65 0
-65 -66 0
-65 -67 0
-65 -68 0
-65 -69 0
-65 -70 0
-66 -66 0
-66 -67 0
-66 -68 0
-66 -69 0
-66 -70 0
-67 -67 0
-67 -68 0
-67 -69 0
-67 -70 0
-68 -68 0
-68 -69 0
-68 -70 0
-69 -69 0
-69 -70 0
-70 -70 0
-64 -64 0
-64 -65 0
-64 -66 0
-64 -67 0
-64 -68 0
-64 -69 0
-64 -70 0
-64 -71 0
-65 -65 0
-65 -66 0
-65 -67 0
-65 -68 0
-65 -69 0
-65 -70 0
-65 -71 0
-66 -66 0
-66 -67 0
-66 -68 0
-66 -69 0
-66 -70 0
-66 -71 0
-67 -67 0
-67 -68 0
-67 -69 0
-67 -70 0
-67 -71 0
-68 -68 0
-68 -69 0
-68 -70 0
-68 -71 0
-69 -69 0
-69 -70 0
-69 -71 0
-70 -70 0
-70 -71 0
-71 -71 0
-65 -65 0
-65 -66 0
-65 -67 0
-65 -68 0
-65 -69 0
-65 -70 0
-65 -71 0
-65 -72 0
-66 -66 0
-66 -67 0
-66 -68 0
-66 -69 0
-66 -70 0
-66 -71 0
-66 -72 0
-67 -67 0
-67 -68 0
-67 -69 0
-67 -70 0
-67 -71 0
-67 -72 0
-68 -68 0
-68 -69 0
-68 -70 0
-68 -71 0
-68 -72 0
-69 -69 0
-69 -70 0
-69 -71 0
-69 -72 0
-70 -70 0
-70 -71 0
-70 -72 0
-71 -71 0
-71 -72 0
-72 -72 0
-66 -66 0
-66 -67 0
-66 -68 0
-66 -69 0
-66 -70 0
-66 -71 0
-66 -72 0
-66 -73 0
-67 -67 0
-67 -68 0
-67 -69 0
-67 -70 0
-67 -71 0
-67 -72 0
-67 -73 0
-68 -68 0
-68 -69 0
-68 -70 0
-68 -71 0
-68 -72 0
-68 -73 0
-69 -69 0
-69 -70 0
-69 -71 0
-69 -72 0
-69 -73 0
-70 -70 0
-70 -71 0
-70 -72 0
-70 -73 0
-71 -71 0
-71 -72 0
-71 -73 0
-72 -72 0
-72 -73 0
-73 -73 0
-67 -67 0
-67 -68 0
-67 -69 0
-67 -70 0
-67 -71 0
-67 -72 0
-67 -73 0
-67 -74 0
-68 -68 0
-68 -69 0
-68 -70 0
-68 -71 0
-68 -72 0
-68 -73 0
-68 -74 0
-69 -69 0
-69 -70 0
-69 -71 0
-69 -72 0
-69 -73 0
-69 -74 0
-70 -70 0
-70 -71 0
-70 -72 0
-70 -73 0
-70 -74 0
-71 -71 0
-71 -72 0
-71 -73 0
-71 -74 0
-72 -72 0
-72 -73 0
-72 -74 0
-73 -73 0
-73 -74 0
-74 -74 0
-68 -68 0
-68 -69 0
-68 -70 0
-68 -71 0
-68 -72 0
-68 -73 0
-68 -74 0
-68 -75 0
-69 -69 0
-69 -70 0
-69 -71 0
-69 -72 0
-69 -73 0
-69 -74 0
-69 -75 0
-70 -70 0
-70 -71 0
-70 -72 0
-70 -73 0
-70 -74 0
-70 -75 0
-71 -71 0
-71 -72 0
-71 -73 0
-71 -74 0
-71 -75 0
-72 -72 0
-72 -73 0
-72 -74 0
-72 -75 0
-73 -73 0
-73 -74 0
-73 -75 0
-74 -74 0
-74 -75 0
-75 -75 0
-69 -69 0
-69 -70 0
-69 -71 0
-69 -72 0
-69 -73 0
-69 -74 0
-69 -75 0
-69 -76 0
-70 -70 0
-70 -71 0
-70 -72 0
-70 -73 0
-70 -74 0
-70 -75 0
-70 -76 0
-71 -71 0
-71 -72 0
-71 -73 0
-71 -74 0
-71 -75 0
-71 -76 0
-72 -72 0
-72 -73 0
-72 -74 0
-72 -75 0
-72 -76 0
-73 -73 0
-73 -74 0
-73 -75 0
-73 -76 0
-74 -74 0
-74 -75 0
-74 -76 0
-75 -75 0
-75 -76 0
-76 -76 0
-70 -70 0
-70 -71 0
-70 -72 0
-70 -73 0
-70 -74 0
-70 -75 0
-70 -76 0
-70 -77 0
-71 -71 0
-71 -72 0
-71 -73 0
-71 -74 0
-71 -75 0
-71 -76 0
-71 -77 0
-72 -72 0
-72 -73 0
-72 -74 0
-72 -75 0
-72 -76 0
-72 -77 0
-73 -73 0
-73 -74 0
-73 -75 0
-73 -76 0
-73 -77 0
-74 -74 0
-74 -75 0
-74 -76 0
-74 -77 0
-75 -75 0
-75 -76 0
-75 -77 0
-76 -76 0
-76 -77 0
-77 -77 0
-71 -71 0
-71 -72 0
-71 -73 0
-71 -74 0
-71 -75 0
-71 -76 0
-71 -77 0
-71 -78 0
-72 -72 0
-72 -73 0
-72 -74 0
-72 -75 0
-72 -76 0
-72 -77 0
-72 -78 0
-73 -73 0
-73 -74 0
-73 -75 0
-73 -76 0
-73 -77 0
-73 -78 0
-74 -74 0
-74 -75 0
-74 -76 0
-74 -77 0
-74 -78 0
-75 -75 0
-75 -76 0
-75 -77 0
-75 -78 0
-76 -76 0
-76 -77 0
-76 -78 0
-77 -77 0
-77 -78 0
-78 -78 0
-72 -72 0
-72 -73 0
-72 -74 0
-72 -75 0
-72 -76 0
-72 -77 0
-72 -78 0
-72 -79 0
-73 -73 0
-73 -74 0
-73 -75 0
-73 -76 0
-73 -77 0
-73 -78 0
-73 -79 0
-74 -74 0
-74 -75 0
-74 -76 0
-74 -77 0
-74 -78 0
-74 -79 0
-75 -75 0
-75 -76 0
-75 -77 0
-75 -78 0
-75 -79 0
-76 -76 0
-76 -77 0
-76 -78 0
-76 -79 0
-77 -77 0
-77 -78 0
-77 -79 0
-78 -78 0
-78 -79 0
-79 -79 0
-73 -73 0
-73 -74 0
-73 -75 0
-73 -76 0
-73 -77 0
-73 -78 0
-73 -79 0
-73 -80 0
-74 -74 0
-74 -75 0
-74 -76 0
-74 -77 0
-74 -78 0
-74 -79 0
-74 -80 0
-75 -75 0
-75 -76 0
-75 -77 0
-75 -78 0
-75 -79 0
-75 -80 0
-76 -76 0
-76 -77 0
-76 -78 0
-76 -79 0
-76 -80 0
-77 -77 0
-77 -78 0
-77 -79 0
-77 -80 0
-78 -78 0
-78 -79 0
-78 -80 0
-79 -79 0
-79 -80 0
-80 -80 0
-74 -74 0
-74 -75 0
-74 -76 0
-74 -77 0
-74 -78 0
-74 -79 0
-74 -80 0
-74 -81 0
-75 -75 0
-75 -76 0
-75 -77 0
-75 -78 0
-75 -79 0
-75 -80 0
-75 -81 0
-76 -76 0
-76 -77 0
-76 -78 0
-76 -79 0
-76 -80 0
-76 -81 0
-77 -77 0
-77 -78 0
-77 -79 0
-77 -80 0
-77 -81 0
-78 -78 0
-78 -79 0
-78 -80 0
-78 -81 0
-79 -79 0
-79 -80 0
-79 -81 0
-80 -80 0
-80 -81 0
-81 -81 0
-75 -75 0
-75 -76 0
-75 -77 0
-75 -78 0
-75 -79 0
-75 -80 0
-75 -81 0
-75 -82 0
-76 -76 0
-76 -77 0
-76 -78 0
-76 -79 0
-76 -80 0
-76 -81 0
-76 -82 0
-77 -77 0
-77 -78 0
-77 -79 0
-77 -80 0
-77 -81 0
-77 -82 0
-78 -78 0
-78 -79 0
-78 -80 0
-78 -81 0
-78 -82 0
-79 -79 0
-79 -80 0
-79 -81 0
-79 -82 0
-80 -80 0
-80 -81 0
-80 -82 0
-81 -81 0
-81 -82 0
-82 -82 0
-76 -76 0
-76 -77 0
-76 -78 0
-76 -79 0
-76 -80 0
-76 -81 0
-76 -82 0
-76 -83 0
-77 -77 0
-77 -78 0
-77 -79 0
-77 -80 0
-77 -81 0
-77 -82 0
-77 -83 0
-78 -78 0
-78 -79 0
-78 -80 0
-78 -81 0
-78 -82 0
-78 -83 0
-79 -79 0
-79 -80 0
-79 -81 0
-79 -82 0
-79 -83 0
-80 -80 0
-80 -81 0
-80 -82 0
-80 -83 0
-81 -81 0
-81 -82 0
-81 -83 0
-82 -82 0
-82 -83 0
-83 -83 0
-77 -77 0
-77 -78 0
-77 -79 0
-77 -80 0
-77 -81 0
-77 -82 0
-77 -83 0
-77 -84 0
-78 -78 0
-78 -79 0
-78 -80 0
-78 -81 0
-78 -82 0
-78 -83 0
-78 -84 0
-79 -79 0
-79 -80 0
-79 -81 0
-79 -82 0
-79 -83 0
-79 -84 0
-80 -80 0
-80 -81 0
-80 -82 0
-80 -83 0
-80 -84 0
-81 -81 0
-81 -82 0
-81 -83 0
-81 -84 0
-82 -82 0
-82 -83 0
-82 -84 0
-83 -83 0
-83 -84 0
-84 -84 0
-78 -78 0
-78 -79 0
-78 -80 0
-78 -81 0
-78 -82 0
-78 -83 0
-78 -84 0
-78 -85 0
-79 -79 0
-79 -80 0
-79 -81 0
-79 -82 0
-79 -83 0
-79 -84 0
-79 -85 0
-80 -80 0
-80 -81 0
-80 -82 0
-80 -83 0
-80 -84 0
-80 -85 0
-81 -81 0
-81 -82 0
-81 -83 0
-81 -84 0
-81 -85 0
-82 -82 0
-82 -83 0
-82 -84 0
-82 -85 0
-83 -83 0
-83 -84 0
-83 -85 0
-84 -84 0
-84 -85 0
-85 -85 0
-79 -79 0
-79 -80 0
-79 -81 0
-79 -82 0
-79 -83 0
-79 -84 0
-79 -85 0
-79 -86 0
-80 -80 0
-80 -81 0
-80 -82 0
-80 -83 0
-80 -84 0
-80 -85 0
-80 -86 0
-81 -81 0
-81 -82 0
-81 -83 0
-81 -84 0
-81 -85 0
-81 -86 0
-82 -82 0
-82 -83 0
-82 -84 0
-82 -85 0
-82 -86 0
-83 -83 0
-83 -84 0
-83 -85 0
-83 -86 0
-84 -84 0
-84 -85 0
-84 -86 0
-85 -85 0
-85 -86 0
-86 -86 0
-80 -80 0
-80 -81 0
-80 -82 0
-80 -83 0
-80 -84 0
-80 -85 0
-80 -86 0
-80 -87 0
-81 -81 0
-81 -82 0
-81 -83 0
-81 -84 0
-81 -85 0
-81 -86 0
-81 -87 0
-82 -82 0
-82 -83 0
-82 -84 0
-82 -85 0
-82 -86 0
-82 -87 0
-83 -83 0
-83 -84 0
-83 -85 0
-83 -86 0
-83 -87 0
-84 -84 0
-84 -85 0
-84 -86 0
-84 -87 0
-85 -85 0
-85 -86 0
-85 -87 0
-86 -86 0
-86 -87 0
-87 -87 0
-81 -81 0
-81 -82 0
-81 -83 0
-81 -84 0
-81 -85 0
-81 -86 0
-81 -87 0
-81 -88 0
-82 -82 0
-82 -83 0
-82 -84 0
-82 -85 0
-82 -86 0
-82 -87 0
-82 -88 0
-83 -83 0
-83 -84 0
-83 -85 0
-83 -86 0
-83 -87 0
-83 -88 0
-84 -84 0
-84 -85 0
-84 -86 0
-84 -87 0
-84 -88 0
-85 -85 0
-85 -86 0
-85 -87 0
-85 -88 0
-86 -86 0
-86 -87 0
-86 -88 0
-87 -87 0
-87 -88 0
-88 -88 0
1 10 19 28 37 46 55 64 73 0
2 11 20 29 38 47 56 65 74 0
3 12 21 30 39 48 57 66 75 0
4 13 22 31 40 49 58 67 76 0
5 14 23 32 41 50 59 68 77 0
6 15 24 33 42 51 60 69 78 0
7 16 25 34 43 52 61 70 79 0
8 17 26 35 44 53 62 71 80 0
9 18 27 36 45 54 63 72 81 0
2 11 20 29 38 47 56 65 74 0
3 12 21 30 39 48 57 66 75 0
4 13 22 31 40 49 58 67 76 0
5 14 23 32 41 50 59 68 77 0
6 15 24 33 42 51 60 69 78 0
7 16 25 34 43 52 61 70 79 0
8 17 26 35 44 53 62 71 80 0
9 18 27 36 45 54 63 72 81 0
10 19 28 37 46 55 64 73 82 0
3 12 21 30 39 48 57 66 75 0
4 13 22 31 40 49 58 67 76 0
5 14 23 32 41 50 59 68 77 0
6 15 24 33 42 51 60 69 78 0
7 16 25 34 43 52 61 70 79 0
8 17 26 35 44 53 62 71 80 0
9 18 27 36 45 54 63 72 81 0
10 19 28 37 46 55 64 73 82 0
11 20 29 38 47 56 65 74 83 0
4 13 22 31 40 49 58 67 76 0
5 14 23 32 41 50 59 68 77 0
6 15 24 33 42 51 60 69 78 0
7 16 25 34 43 52 61 70 79 0
8 17 26 35 44 53 62 71 80 0
9 18 27 36 45 54 63 72 81 0
10 19 28 37 46 55 64 73 82 0
11 20 29 38 47 56 65 74 83 0
12 21 30 39 48 57 66 75 84 0
5 14 23 32 41 50 59 68 77 0
6 15 24 33 42 51 60 69 78 0
7 16 25 34 43 52 61 70 79 0
8 17 26 35 44 53 62 71 80 0
9 18 27 36 45 54 63 72 81 0
10 19 28 37 46 55 64 73 82 0
11 20 29 38 47 56 65 74 83 0
12 21 30 39 48 57 66 75 84 0
13 22 31 40 49 58 67 76 85 0
6 15 24 33 42 51 60 69 78 0
7 16 25 34 43 52 61 70 79 0
8 17 26 35 44 53 62 71 80 0
9 18 27 36 45 54 63 72 81 0
10 19 28 37 46 55 64 73 82 0
11 20 29 38 47 56 65 74 83 0
12 21 30 39 48 57 66 75 84 0
13 22 31 40 49 58 67 76 85 0
14 23 32 41 50 59 68 77 86 0
7 16 25 34 43 52 61 70 79 0
8 17 26 35 44 53 62 71 80 0
9 18 27 36 45 54 63 72 81 0
10 19 28 37 46 55 64 73 82 0
11 20 29 38 47 56 65 74 83 0
12 21 30 39 48 57 66 75 84 0
13 22 31 40 49 58 67 76 85 0
14 23 32 41 50 59 68 77 86 0
15 24 33 42 51 60 69 78 87 0
8 17 26 35 44 53 62 71 80 0
9 18 27 36 45 54 63 72 81 0
10 19 28 37 46 55 64 73 82 0
11 20 29 38 47 56 65 74 83 0
12 21 30 39 48 57 66 75 84 0
13 22 31 40 49 58 67 76 85 0
14 23 32 41 50 59 68 77 86 0
15 24 33 42 51 60 69 78 87 0
16 25 34 43 52 61 70 79 88 0
9 18 27 36 45 54 63 72 81 0
10 19 28 37 46 55 64 73 82 0
11 20 29 38 47 56 65 74 83 0
12 21 30 39 48 57 66 75 84 0
13 22 31 40 49 58 67 76 85 0
14 23 32 41 50 59 68 77 86 0
15 24 33 42 51 60 69 78 87 0
16 25 34 43 52 61 70 79 88 0
17 26 35 44 53 62 71 80 89 0
1 2 3 4 5 6 7 8 9 0
2 3 4 5 6 7 8 9 10 0
3 4 5 6 7 8 9 10 11 0
4 5 6 7 8 9 10 11 12 0
5 6 7 8 9 10 11 12 13 0
6 7 8 9 10 11 12 13 14 0
7 8 9 10 11 12 13 14 15 0
8 9 10 11 12 13 14 15 16 0
9 10 11 12 13 14 15 16 17 0
10 11 12 13 14 15 16 17 18 0
11 12 13 14 15 16 17 18 19 0
12 13 14 15 16 17 18 19 20 0
13 14 15 16 17 18 19 20 21 0
14 15 16 17 18 19 20 21 22 0
15 16 17 18 19 20 21 22 23 0
16 17 18 19 20 21 22 23 24 0
17 18 19 20 21 22 23 24 25 0
18 19 20 21 22 23 24 25 26 0
19 20 21 22 23 24 25 26 27 0
20 21 22 23 24 25 26 27 28 0
21 22 23 24 25 26 27 28 29 0
22 23 24 25 26 27 28 29 30 0
23 24 25 26 27 28 29 30 31 0
24 25 26 27 28 29 30 31 32 0
25 26 27 28 29 30 31 32 33 0
26 27 28 29 30 31 32 33 34 0
27 28 29 30 31 32 33 34 35 0
28 29 30 31 32 33 34 35 36 0
29 30 31 32 33 34 35 36 37 0
30 31 32 33 34 35 36 37 38 0
31 32 33 34 35 36 37 38 39 0
32 33 34 35 36 37 38 39 40 0
33 34 35 36 37 38 39 40 41 0
34 35 36 37 38 39 40 41 42 0
35 36 37 38 39 40 41 42 43 0
36 37 38 39 40 41 42 43 44 0
37 38 39 40 41 42 43 44 45 0
38 39 40 41 42 43 44 45 46 0
39 40 41 42 43 44 45 46 47 0
40 41 42 43 44 45 46 47 48 0
41 42 43 44 45 46 47 48 49 0
42 43 44 45 46 47 48 49 50 0
43 44 45 46 47 48 49 50 51 0
44 45 46 47 48 49 50 51 52 0
45 46 47 48 49 50 51 52 53 0
46 47 48 49 50 51 52 53 54 0
47 48 49 50 51 52 53 54 55 0
48 49 50 51 52 53 54 55 56 0
49 50 51 52 53 54 55 56 57 0
50 51 52 53 54 55 56 57 58 0
51 52 53 54 55 56 57 58 59 0
52 53 54 55 56 57 58 59 60 0
53 54 55 56 57 58 59 60 61 0
54 55 56 57 58 59 60 61 62 0
55 56 57 58 59 60 61 62 63 0
56 57 58 59 60 61 62 63 64 0
57 58 59 60 61 62 63 64 65 0
58 59 60 61 62 63 64 65 66 0
59 60 61 62 63 64 65 66 67 0
60 61 62 63 64 65 66 67 68 0
61 62 63 64 65 66 67 68 69 0
62 63 64 65 66 67 68 69 70 0
63 64 65 66 67 68 69 70 71 0
64 65 66 67 68 69 70 71 72 0
65 66 67 68 69 70 71 72 73 0
66 67 68 69 70 71 72 73 74 0
67 68 69 70 71 72 73 74 75 0
68 69 70 71 72 73 74 75 76 0
69 70 71 72 73 74 75 76 77 0
70 71 72 73 74 75 76 77 78 0
71 72 73 74 75 76 77 78 79 0
72 73 74 75 76 77 78 79 80 0
73 74 75 76 77 78 79 80 81 0
74 75 76 77 78 79 80 81 82 0
75 76 77 78 79 80 81 82 83 0
76 77 78 79 80 81 82 83 84 0
77 78 79 80 81 82 83 84 85 0
78 79 80 81 82 83 84 85 86 0
79 80 81 82 83 84 85 86 87 0
80 81 82 83 84 85 86 87 88 0
81 82 83 84 85 86 87 88 89 0
1 2 3 10 11 12 19 20 21 4 5 6 13 14 15 22 23 24 7 8 9 16 17 18 25 26 27 28 29 30 37 38 39 46 47 48 31 32 33 40 41 42 49 50 51 34 35 36 43 44 45 52 53 54 55 56 57 64 65 66 73 74 75 58 59 60 67 68 69 76 77 78 61 62 63 70 71 72 79 80 81 0
2 3 4 11 12 13 20 21 22 5 6 7 14 15 16 23 24 25 8 9 10 17 18 19 26 27 28 29 30 31 38 39 40 47 48 49 32 33 34 41 42 43 50 51 52 35 36 37 44 45 46 53 54 55 56 57 58 65 66 67 74 75 76 59 60 61 68 69 70 77 78 79 62 63 64 71 72 73 80 81 82 0
3 4 5 12 13 14 21 22 23 6 7 8 15 16 17 24 25 26 9 10 11 18 19 20 27 28 29 30 31 32 39 40 41 48 49 50 33 34 35 42 43 44 51 52 53 36 37 38 45 46 47 54 55 56 57 58 59 66 67 68 75 76 77 60 61 62 69 70 71 78 79 80 63 64 65 72 73 74 81 82 83 0
4 5 6 13 14 15 22 23 24 7 8 9 16 17 18 25 26 27 10 11 12 19 20 21 28 29 30 31 32 33 40 41 42 49 50 51 34 35 36 43 44 45 52 53 54 37 38 39 46 47 48 55 56 57 58 59 60 67 68 69 76 77 78 61 62 63 70 71 72 79 80 81 64 65 66 73 74 75 82 83 84 0
5 6 7 14 15 16 23 24 25 8 9 10 17 18 19 26 27 28 11 12 13 20 21 22 29 30 31 32 33 34 41 42 43 50 51 52 35 36 37 44 45 46 53 54 55 38 39 40 47 48 49 56 57 58 59 60 61 68 69 70 77 78 79 62 63 64 71 72 73 80 81 82 65 66 67 74 75 76 83 84 85 0
6 7 8 15 16 17 24 25 26 9 10 11 18 19 20 27 28 29 12 13 14 21 22 23 30 31 32 33 34 35 42 43 44 51 52 53 36 37 38 45 46 47 54 55 56 39 40 41 48 49 50 57 58 59 60 61 62 69 70 71 78 79 80 63 64 65 72 73 74 81 82 83 66 67 68 75 76 77 84 85 86 0
7 8 9 16 17 18 25 26 27 10 11 12 19 20 21 28 29 30 13 14 15 22 23 24 31 32 33 34 35 36 43 44 45 52 53 54 37 38 39 46 47 48 55 56 57 40 41 42 49 50 51 58 59 60 61 62 63 70 71 72 79 80 81 64 65 66 73 74 75 82 83 84 67 68 69 76 77 78 85 86 87 0
8 9 10 17 18 19 26 27 28 11 12 13 20 21 22 29 30 31 14 15 16 23 24 25 32 33 34 35 36 37 44 45 46 53 54 55 38 39 40 47 48 49 56 57 58 41 42 43 50 51 52 59 60 61 62 63 64 71 72 73 80 81 82 65 66 67 74 75 76 83 84 85 68 69 70 77 78 79 86 87 88 0
9 10 11 18 19 20 27 28 29 12 13 14 21 22 23 30 31 32 15 16 17 24 25 26 33 34 35 36 37 38 45 46 47 54 55 56 39 40 41 48 49 50 57 58 59 42 43 44 51 52 53 60 61 62 63 64 65 72 73 74 81 82 83 66 67 68 75 76 77 84 85 86 69 70 71 78 79 80 87 88 89 0
